maximize
obj: 320 x_1_ + 693 x_2_ + 563 x_3_ + 343 x_4_ + 280 x_5_ + 626 x_6_ + 1 x_7_ + 558 x_8_ + 234 x_9_ + 346 x_10_ + 37 x_11_ + 109 x_12_ + 110 x_13_ + 225 x_14_ + 845 x_15_ + 72 x_16_ + 446 x_17_ + 848 x_18_ + 549 x_19_ + 772 x_20_ + 713 x_21_ + 548 x_22_ + 397 x_23_ + 194 x_24_ + 975 x_25_ + 284 x_26_ + 259 x_27_ + 190 x_28_ + 700 x_29_ + 206 x_30_ + 53 x_31_ + 135 x_32_ + 101 x_33_ + 912 x_34_ + 203 x_35_ + 708 x_36_ + 261 x_37_ + 101 x_38_ + 511 x_39_ + 104 x_40_ + 435 x_41_ + 300 x_42_ + 67 x_43_ + 110 x_44_ + 137 x_45_ + 800 x_46_ + 684 x_47_ + 57 x_48_ + 31 x_49_ + 427 x_50_ + 126 x_51_ + 81 x_52_ - 331 x_53_ + 367 x_54_ + 72 x_55_ - 458 x_56_ + 34 x_57_ + 183 x_58_ + 448 x_59_ + 60 x_60_ + 395 x_61_ + 472 x_62_ + 335 x_63_ + 272 x_64_ + 169 x_65_ + 589 x_66_ + 809 x_67_ + 569 x_68_ + 164 x_69_ + 48 x_70_ + 409 x_71_ + 421 x_72_ + 171 x_73_ + 389 x_74_ + 71 x_75_ + 239 x_76_ + 281 x_77_ + 292 x_78_ + 253 x_79_ + 246 x_80_ + 423 x_81_ + 270 x_82_ + 645 x_83_ + 599 x_84_ + 48 x_85_ + 325 x_86_ + 297 x_87_ + 905 x_88_ + 216 x_89_ + 99 x_90_ + 888 x_91_ - 366 x_92_ + 164 x_93_ + 290 x_94_ + 519 x_95_ + 252 x_96_ + 441 x_97_ + 521 x_98_ + 258 x_99_ + 246 x_100_ + 1000 s_1_ + 1000 s_2_ + 1000 s_3_ + 1000 s_4_ + 1000 s_5_ + 1000 s_6_ + 1000 s_7_ + 1000 s_8_ + 1000 s_9_ + 1000 s_10_ + 1000 s_11_ + 1000 s_12_ + 1000 s_13_ + 1000 s_14_ + 1000 s_15_ + 1000 s_16_ + 1000 s_17_ + 1000 s_18_ + 1000 s_19_ + 1000 s_20_ + 1000 s_21_ + 1000 s_22_ + 1000 s_23_ + 1000 s_24_ + 1000 s_25_ + 1000 s_26_ + 1000 s_27_ + 1000 s_28_ + 1000 s_29_ + 1000 s_30_ - 1000 ss_1_
subject to
c2: 1 s_1_ + 83 x_1_ + 174 x_2_ + 590 x_3_ + 473 x_4_ + 722 x_5_ + 767 x_6_ + 10 x_7_ + 499 x_8_ + 555 x_9_ + 204 x_10_ + 284 x_11_ + 504 x_12_ + 946 x_13_ + 800 x_14_ + 931 x_15_ + 165 x_16_ + 830 x_17_ + 271 x_18_ + 102 x_19_ + 629 x_20_ + 136 x_21_ + 532 x_22_ + 165 x_23_ + 600 x_24_ + 955 x_25_ + 483 x_26_ + 761 x_27_ + 606 x_28_ + 288 x_29_ + 77 x_30_ + 452 x_31_ + 273 x_32_ + 751 x_33_ + 566 x_34_ + 911 x_35_ + 126 x_36_ + 861 x_37_ + 760 x_38_ + 696 x_39_ + 579 x_40_ + 184 x_41_ + 542 x_42_ + 784 x_43_ + 397 x_44_ + 211 x_45_ + 136 x_46_ + 222 x_47_ + 768 x_48_ + 786 x_49_ + 673 x_50_ + 446 x_51_ + 949 x_52_ + 701 x_53_ + 122 x_54_ + 478 x_55_ + 546 x_56_ + 532 x_57_ + 876 x_58_ + 254 x_59_ + 333 x_60_ + 407 x_61_ + 968 x_62_ + 797 x_63_ + 31 x_64_ + 994 x_65_ + 638 x_66_ + 996 x_67_ + 808 x_68_ + 498 x_69_ + 128 x_70_ + 515 x_71_ + 470 x_72_ + 867 x_73_ + 221 x_74_ + 845 x_75_ + 237 x_76_ + 61 x_77_ + 732 x_78_ + 237 x_79_ + 13 x_80_ + 698 x_81_ + 702 x_82_ + 308 x_83_ + 887 x_84_ + 816 x_85_ + 337 x_86_ + 994 x_87_ + 845 x_88_ + 919 x_89_ + 526 x_90_ + 296 x_91_ + 900 x_92_ + 449 x_93_ + 515 x_94_ + 159 x_95_ + 458 x_96_ + 148 x_97_ + 502 x_98_ + 803 x_99_ + 903 x_100_ <= 39514
c3: 1 s_2_ + 369 x_1_ + 30 x_2_ + 572 x_3_ + 598 x_4_ + 35 x_5_ + 401 x_6_ + 394 x_7_ + 56 x_8_ + 382 x_9_ + 308 x_10_ + 799 x_11_ + 644 x_12_ + 669 x_13_ + 982 x_14_ + 626 x_15_ + 161 x_16_ + 97 x_17_ + 268 x_18_ + 598 x_19_ + 63 x_20_ + 234 x_21_ + 634 x_22_ + 335 x_23_ + 289 x_24_ + 800 x_25_ + 678 x_26_ + 992 x_27_ + 59 x_28_ + 86 x_29_ + 829 x_30_ + 172 x_31_ + 771 x_32_ + 667 x_33_ + 642 x_34_ + 235 x_35_ + 745 x_36_ + 192 x_37_ + 482 x_38_ + 937 x_39_ + 862 x_40_ + 520 x_41_ + 601 x_42_ + 997 x_43_ + 998 x_44_ + 643 x_45_ + 842 x_46_ + 142 x_47_ + 4 x_48_ + 313 x_49_ + 944 x_50_ + 909 x_51_ + 898 x_52_ + 367 x_53_ + 496 x_54_ + 698 x_55_ + 997 x_56_ + 763 x_57_ + 202 x_58_ + 249 x_59_ + 3 x_60_ + 54 x_61_ + 68 x_62_ + 825 x_63_ + 748 x_64_ + 271 x_65_ + 229 x_66_ + 135 x_67_ + 521 x_68_ + 914 x_69_ + 962 x_70_ + 623 x_71_ + 407 x_72_ + 970 x_73_ + 130 x_74_ + 182 x_75_ + 233 x_76_ + 100 x_77_ + 9 x_78_ + 553 x_79_ + 857 x_80_ + 455 x_81_ + 791 x_82_ + 37 x_83_ + 404 x_84_ + 812 x_85_ + 343 x_86_ + 899 x_87_ + 33 x_88_ + 330 x_89_ + 919 x_90_ + 913 x_91_ + 976 x_92_ + 70 x_93_ + 994 x_94_ + 592 x_95_ + 146 x_96_ + 285 x_97_ + 302 x_98_ + 634 x_99_ + 660 x_100_ <= 37249
c4: 1 s_3_ + 849 x_1_ + 574 x_2_ + 23 x_3_ + 883 x_4_ + 757 x_5_ + 200 x_6_ + 436 x_7_ + 638 x_8_ + 128 x_9_ + 844 x_10_ + 362 x_11_ + 902 x_12_ + 971 x_13_ + 713 x_14_ + 127 x_15_ + 463 x_16_ + 139 x_17_ + 575 x_18_ + 791 x_19_ + 307 x_20_ + 949 x_21_ + 372 x_22_ + 465 x_23_ + 331 x_24_ + 757 x_25_ + 319 x_26_ + 490 x_27_ + 252 x_28_ + 733 x_29_ + 158 x_30_ + 889 x_31_ + 723 x_32_ + 950 x_33_ + 384 x_34_ + 47 x_35_ + 993 x_36_ + 751 x_37_ + 434 x_38_ + 869 x_39_ + 93 x_40_ + 352 x_41_ + 946 x_42_ + 794 x_43_ + 300 x_44_ + 693 x_45_ + 397 x_46_ + 51 x_47_ + 617 x_48_ + 452 x_49_ + 529 x_50_ + 345 x_51_ + 12 x_52_ + 293 x_53_ + 193 x_54_ + 881 x_55_ + 476 x_56_ + 508 x_57_ + 460 x_58_ + 878 x_59_ + 332 x_60_ + 327 x_61_ + 412 x_62_ + 23 x_63_ + 630 x_64_ + 776 x_65_ + 696 x_66_ + 24 x_67_ + 651 x_68_ + 354 x_69_ + 704 x_70_ + 857 x_71_ + 838 x_72_ + 235 x_73_ + 244 x_74_ + 113 x_75_ + 419 x_76_ + 750 x_77_ + 619 x_78_ + 712 x_79_ + 163 x_80_ + 229 x_81_ + 404 x_82_ + 943 x_83_ + 316 x_84_ + 416 x_85_ + 567 x_86_ + 400 x_87_ + 483 x_88_ + 89 x_89_ + 696 x_90_ + 997 x_91_ + 625 x_92_ + 4 x_93_ + 465 x_94_ + 186 x_95_ + 429 x_96_ + 423 x_97_ + 908 x_98_ + 626 x_99_ + 975 x_100_ <= 38159
c5: 1 s_4_ + 116 x_1_ + 203 x_2_ + 274 x_3_ + 937 x_4_ + 81 x_5_ + 137 x_6_ + 302 x_7_ + 603 x_8_ + 116 x_9_ + 404 x_10_ + 47 x_11_ + 597 x_12_ + 719 x_13_ + 104 x_14_ + 850 x_15_ + 827 x_16_ + 368 x_17_ + 925 x_18_ + 528 x_19_ + 479 x_20_ + 806 x_21_ + 244 x_22_ + 503 x_23_ + 346 x_24_ + 850 x_25_ + 732 x_26_ + 563 x_27_ + 225 x_28_ + 59 x_29_ + 895 x_30_ + 172 x_31_ + 367 x_32_ + 47 x_33_ + 139 x_34_ + 486 x_35_ + 350 x_36_ + 962 x_37_ + 425 x_38_ + 923 x_39_ + 708 x_40_ + 761 x_41_ + 559 x_42_ + 184 x_43_ + 703 x_44_ + 243 x_45_ + 934 x_46_ + 210 x_47_ + 665 x_48_ + 116 x_49_ + 252 x_50_ + 30 x_51_ + 418 x_52_ + 569 x_53_ + 255 x_54_ + 396 x_55_ + 689 x_56_ + 947 x_57_ + 182 x_58_ + 297 x_59_ + 784 x_60_ + 692 x_61_ + 927 x_62_ + 631 x_63_ + 665 x_64_ + 843 x_65_ + 39 x_66_ + 893 x_67_ + 92 x_68_ + 558 x_69_ + 309 x_70_ + 181 x_71_ + 30 x_72_ + 108 x_73_ + 213 x_74_ + 50 x_75_ + 393 x_76_ + 496 x_77_ + 366 x_78_ + 278 x_79_ + 158 x_80_ + 853 x_81_ + 851 x_82_ + 173 x_83_ + 915 x_84_ + 60 x_85_ + 978 x_86_ + 91 x_87_ + 588 x_88_ + 294 x_89_ + 566 x_90_ + 566 x_91_ + 163 x_92_ + 402 x_93_ + 908 x_94_ + 850 x_95_ + 919 x_96_ + 654 x_97_ + 447 x_98_ + 393 x_99_ + 309 x_100_ <= 34886
c6: 1 s_5_ + 622 x_1_ + 924 x_2_ + 167 x_3_ + 841 x_4_ + 501 x_5_ + 277 x_6_ + 70 x_7_ + 171 x_8_ + 174 x_9_ + 271 x_10_ + 495 x_11_ + 610 x_12_ + 689 x_13_ + 274 x_14_ + 483 x_15_ + 410 x_16_ + 566 x_17_ + 900 x_18_ + 349 x_19_ + 188 x_20_ + 347 x_21_ + 188 x_22_ + 576 x_23_ + 545 x_24_ + 574 x_25_ + 678 x_26_ + 791 x_27_ + 455 x_28_ + 321 x_29_ + 460 x_30_ + 376 x_31_ + 504 x_32_ + 209 x_33_ + 39 x_34_ + 383 x_35_ + 925 x_36_ + 972 x_37_ + 912 x_38_ + 700 x_39_ + 901 x_40_ + 349 x_41_ + 457 x_42_ + 109 x_43_ + 69 x_44_ + 194 x_45_ + 626 x_46_ + 985 x_47_ + 934 x_48_ + 448 x_49_ + 373 x_50_ + 113 x_51_ + 610 x_52_ + 483 x_53_ + 905 x_54_ + 495 x_55_ + 476 x_56_ + 895 x_57_ + 246 x_58_ + 60 x_59_ + 274 x_60_ + 141 x_61_ + 421 x_62_ + 267 x_63_ + 4 x_64_ + 215 x_65_ + 125 x_66_ + 142 x_67_ + 738 x_68_ + 546 x_69_ + 133 x_70_ + 892 x_71_ + 39 x_72_ + 630 x_73_ + 133 x_74_ + 87 x_75_ + 559 x_76_ + 623 x_77_ + 795 x_78_ + 967 x_79_ + 881 x_80_ + 600 x_81_ + 686 x_82_ + 441 x_83_ + 180 x_84_ + 68 x_85_ + 52 x_86_ + 525 x_87_ + 91 x_88_ + 661 x_89_ + 556 x_90_ + 913 x_91_ + 889 x_92_ + 97 x_93_ + 531 x_94_ + 217 x_95_ + 267 x_96_ + 304 x_97_ + 519 x_98_ + 476 x_99_ + 783 x_100_ <= 34600
c7: 1 s_6_ + 630 x_1_ + 437 x_2_ + 557 x_3_ + 168 x_4_ + 464 x_5_ + 442 x_6_ + 438 x_7_ + 543 x_8_ + 920 x_9_ + 988 x_10_ + 980 x_11_ + 769 x_12_ + 760 x_13_ + 294 x_14_ + 731 x_15_ + 275 x_16_ + 624 x_17_ + 822 x_18_ + 128 x_19_ + 118 x_20_ + 472 x_21_ + 647 x_22_ + 952 x_23_ + 18 x_24_ + 93 x_25_ + 237 x_26_ + 179 x_27_ + 571 x_28_ + 52 x_29_ + 796 x_30_ + 224 x_31_ + 470 x_32_ + 624 x_33_ + 638 x_34_ + 944 x_35_ + 930 x_36_ + 602 x_37_ + 393 x_38_ + 890 x_39_ + 231 x_40_ + 21 x_41_ + 429 x_42_ + 841 x_43_ + 408 x_44_ + 271 x_45_ + 822 x_46_ + 799 x_47_ + 407 x_48_ + 126 x_49_ + 654 x_50_ + 32 x_51_ + 412 x_52_ + 1 x_53_ + 799 x_54_ + 423 x_55_ + 126 x_56_ + 793 x_57_ + 771 x_58_ + 65 x_59_ + 325 x_60_ + 268 x_61_ + 860 x_62_ + 411 x_63_ + 486 x_64_ + 616 x_65_ + 339 x_66_ + 260 x_67_ + 92 x_68_ + 871 x_69_ + 697 x_70_ + 746 x_71_ + 109 x_72_ + 246 x_73_ + 359 x_74_ + 862 x_75_ + 268 x_76_ + 477 x_77_ + 757 x_78_ + 879 x_79_ + 136 x_80_ + 774 x_81_ + 308 x_82_ + 927 x_83_ + 655 x_84_ + 222 x_85_ + 925 x_86_ + 991 x_87_ + 653 x_88_ + 246 x_89_ + 918 x_90_ + 587 x_91_ + 530 x_92_ + 366 x_93_ + 88 x_94_ + 941 x_95_ + 726 x_96_ + 614 x_97_ + 922 x_98_ + 978 x_99_ + 781 x_100_ <= 39350
c8: 1 s_7_ + 932 x_1_ + 2 x_2_ + 191 x_3_ + 803 x_4_ + 908 x_5_ + 105 x_6_ + 850 x_7_ + 878 x_8_ + 330 x_9_ + 828 x_10_ + 777 x_11_ + 694 x_12_ + 921 x_13_ + 25 x_14_ + 67 x_15_ + 885 x_16_ + 721 x_17_ + 568 x_18_ + 663 x_19_ + 247 x_20_ + 955 x_21_ + 245 x_22_ + 184 x_23_ + 776 x_24_ + 604 x_25_ + 255 x_26_ + 61 x_27_ + 527 x_28_ + 82 x_29_ + 555 x_30_ + 66 x_31_ + 719 x_32_ + 986 x_33_ + 53 x_34_ + 361 x_35_ + 983 x_36_ + 469 x_37_ + 243 x_38_ + 646 x_39_ + 662 x_40_ + 623 x_41_ + 858 x_42_ + 949 x_43_ + 593 x_44_ + 373 x_45_ + 669 x_46_ + 668 x_47_ + 272 x_48_ + 849 x_49_ + 513 x_50_ + 96 x_51_ + 532 x_52_ + 647 x_53_ + 641 x_54_ + 561 x_55_ + 16 x_56_ + 773 x_57_ + 770 x_58_ + 668 x_59_ + 274 x_60_ + 709 x_61_ + 726 x_62_ + 60 x_63_ + 448 x_64_ + 610 x_65_ + 66 x_66_ + 432 x_67_ + 763 x_68_ + 619 x_69_ + 902 x_70_ + 586 x_71_ + 869 x_72_ + 682 x_73_ + 143 x_74_ + 501 x_75_ + 249 x_76_ + 932 x_77_ + 583 x_78_ + 748 x_79_ + 270 x_80_ + 335 x_81_ + 871 x_82_ + 826 x_83_ + 875 x_84_ + 972 x_85_ + 241 x_86_ + 685 x_87_ + 562 x_88_ + 737 x_89_ + 281 x_90_ + 842 x_91_ + 789 x_92_ + 334 x_93_ + 405 x_94_ + 919 x_95_ + 178 x_96_ + 379 x_97_ + 656 x_98_ + 763 x_99_ + 997 x_100_ <= 41788
c9: 1 s_8_ + 502 x_1_ + 762 x_2_ + 269 x_3_ + 337 x_4_ + 909 x_5_ + 844 x_6_ + 183 x_7_ + 894 x_8_ + 13 x_9_ + 663 x_10_ + 817 x_11_ + 769 x_12_ + 441 x_13_ + 459 x_14_ + 501 x_15_ + 622 x_16_ + 266 x_17_ + 966 x_18_ + 558 x_19_ + 318 x_20_ + 201 x_21_ + 762 x_22_ + 470 x_23_ + 337 x_24_ + 789 x_25_ + 413 x_26_ + 404 x_27_ + 171 x_28_ + 245 x_29_ + 71 x_30_ + 595 x_31_ + 750 x_32_ + 412 x_33_ + 286 x_34_ + 793 x_35_ + 35 x_36_ + 543 x_37_ + 825 x_38_ + 324 x_39_ + 431 x_40_ + 792 x_41_ + 358 x_42_ + 348 x_43_ + 711 x_44_ + 736 x_45_ + 796 x_46_ + 952 x_47_ + 324 x_48_ + 855 x_49_ + 823 x_50_ + 370 x_51_ + 780 x_52_ + 940 x_53_ + 663 x_54_ + 857 x_55_ + 231 x_56_ + 290 x_57_ + 824 x_58_ + 307 x_59_ + 52 x_60_ + 464 x_61_ + 264 x_62_ + 815 x_63_ + 830 x_64_ + 406 x_65_ + 954 x_66_ + 515 x_67_ + 755 x_68_ + 129 x_69_ + 581 x_70_ + 667 x_71_ + 974 x_72_ + 133 x_73_ + 363 x_74_ + 148 x_75_ + 633 x_76_ + 165 x_77_ + 498 x_78_ + 588 x_79_ + 277 x_80_ + 221 x_81_ + 301 x_82_ + 649 x_83_ + 804 x_84_ + 33 x_85_ + 64 x_86_ + 187 x_87_ + 453 x_88_ + 813 x_89_ + 493 x_90_ + 379 x_91_ + 37 x_92_ + 596 x_93_ + 354 x_94_ + 888 x_95_ + 21 x_96_ + 157 x_97_ + 567 x_98_ + 62 x_99_ + 185 x_100_ <= 37037
c10: 1 s_9_ + 49 x_1_ + 312 x_2_ + 373 x_3_ + 914 x_4_ + 285 x_5_ + 231 x_6_ + 986 x_7_ + 431 x_8_ + 207 x_9_ + 886 x_10_ + 1000 x_11_ + 752 x_12_ + 530 x_13_ + 975 x_14_ + 117 x_15_ + 606 x_16_ + 634 x_17_ + 980 x_18_ + 60 x_19_ + 500 x_20_ + 487 x_21_ + 597 x_22_ + 637 x_23_ + 702 x_24_ + 274 x_25_ + 325 x_26_ + 462 x_27_ + 83 x_28_ + 864 x_29_ + 940 x_30_ + 320 x_31_ + 300 x_32_ + 993 x_33_ + 315 x_34_ + 178 x_35_ + 850 x_36_ + 791 x_37_ + 993 x_38_ + 126 x_39_ + 129 x_40_ + 646 x_41_ + 679 x_42_ + 357 x_43_ + 999 x_44_ + 176 x_45_ + 437 x_46_ + 524 x_47_ + 994 x_48_ + 967 x_49_ + 827 x_50_ + 883 x_51_ + 308 x_52_ + 895 x_53_ + 96 x_54_ + 665 x_55_ + 751 x_56_ + 736 x_57_ + 402 x_58_ + 65 x_59_ + 984 x_60_ + 343 x_61_ + 210 x_62_ + 138 x_63_ + 742 x_64_ + 719 x_65_ + 125 x_66_ + 234 x_67_ + 824 x_68_ + 42 x_69_ + 1 x_70_ + 400 x_71_ + 575 x_72_ + 875 x_73_ + 766 x_74_ + 779 x_75_ + 704 x_76_ + 7 x_77_ + 832 x_78_ + 654 x_79_ + 136 x_80_ + 94 x_81_ + 190 x_82_ + 17 x_83_ + 93 x_84_ + 77 x_85_ + 196 x_86_ + 470 x_87_ + 944 x_88_ + 760 x_89_ + 137 x_90_ + 336 x_91_ + 668 x_92_ + 170 x_93_ + 760 x_94_ + 700 x_95_ + 206 x_96_ + 61 x_97_ + 910 x_98_ + 804 x_99_ + 922 x_100_ <= 38405
c11: 1 s_10_ + 193 x_1_ + 392 x_2_ + 63 x_3_ + 209 x_4_ + 820 x_5_ + 202 x_6_ + 962 x_7_ + 604 x_8_ + 21 x_9_ + 319 x_10_ + 21 x_11_ + 792 x_12_ + 848 x_13_ + 820 x_14_ + 933 x_15_ + 975 x_16_ + 993 x_17_ + 196 x_18_ + 629 x_19_ + 169 x_20_ + 425 x_21_ + 553 x_22_ + 796 x_23_ + 359 x_24_ + 842 x_25_ + 526 x_26_ + 613 x_27_ + 516 x_28_ + 922 x_29_ + 471 x_30_ + 569 x_31_ + 369 x_32_ + 545 x_33_ + 86 x_34_ + 940 x_35_ + 135 x_36_ + 251 x_37_ + 444 x_38_ + 481 x_39_ + 108 x_40_ + 676 x_41_ + 611 x_42_ + 167 x_43_ + 81 x_44_ + 206 x_45_ + 870 x_46_ + 217 x_47_ + 353 x_48_ + 595 x_49_ + 173 x_50_ + 678 x_51_ + 906 x_52_ + 188 x_53_ + 74 x_54_ + 381 x_55_ + 185 x_56_ + 541 x_57_ + 765 x_58_ + 822 x_59_ + 319 x_60_ + 511 x_61_ + 80 x_62_ + 784 x_63_ + 438 x_64_ + 395 x_65_ + 17 x_66_ + 119 x_67_ + 209 x_68_ + 7 x_69_ + 883 x_70_ + 865 x_71_ + 598 x_72_ + 418 x_73_ + 971 x_74_ + 597 x_75_ + 717 x_76_ + 911 x_77_ + 195 x_78_ + 99 x_79_ + 605 x_80_ + 988 x_81_ + 457 x_82_ + 720 x_83_ + 763 x_84_ + 271 x_85_ + 525 x_86_ + 370 x_87_ + 554 x_88_ + 141 x_89_ + 981 x_90_ + 230 x_91_ + 161 x_92_ + 874 x_93_ + 408 x_94_ + 427 x_95_ + 375 x_96_ + 960 x_97_ + 980 x_98_ + 647 x_99_ + 487 x_100_ <= 37244
c12: 1 s_11_ + 232 x_1_ + 543 x_2_ + 450 x_3_ + 971 x_4_ + 81 x_5_ + 680 x_6_ + 382 x_7_ + 770 x_8_ + 779 x_9_ + 748 x_10_ + 227 x_11_ + 546 x_12_ + 730 x_13_ + 696 x_14_ + 53 x_15_ + 404 x_16_ + 508 x_17_ + 433 x_18_ + 460 x_19_ + 81 x_20_ + 737 x_21_ + 996 x_22_ + 7 x_23_ + 640 x_24_ + 901 x_25_ + 991 x_26_ + 511 x_27_ + 101 x_28_ + 375 x_29_ + 476 x_30_ + 605 x_31_ + 313 x_32_ + 910 x_33_ + 153 x_34_ + 219 x_35_ + 331 x_36_ + 720 x_37_ + 569 x_38_ + 555 x_39_ + 906 x_40_ + 235 x_41_ + 720 x_42_ + 58 x_43_ + 271 x_44_ + 839 x_45_ + 89 x_46_ + 538 x_47_ + 388 x_48_ + 498 x_49_ + 191 x_50_ + 459 x_51_ + 592 x_52_ + 345 x_53_ + 653 x_54_ + 351 x_55_ + 486 x_56_ + 247 x_57_ + 838 x_58_ + 239 x_59_ + 48 x_60_ + 768 x_61_ + 99 x_62_ + 104 x_63_ + 390 x_64_ + 330 x_65_ + 73 x_66_ + 342 x_67_ + 758 x_68_ + 848 x_69_ + 255 x_70_ + 948 x_71_ + 147 x_72_ + 469 x_73_ + 399 x_74_ + 1000 x_75_ + 550 x_76_ + 250 x_77_ + 852 x_78_ + 234 x_79_ + 333 x_80_ + 985 x_81_ + 894 x_82_ + 54 x_83_ + 654 x_84_ + 206 x_85_ + 573 x_86_ + 422 x_87_ + 17 x_88_ + 176 x_89_ + 588 x_90_ + 921 x_91_ + 392 x_92_ + 419 x_93_ + 225 x_94_ + 986 x_95_ + 320 x_96_ + 618 x_97_ + 598 x_98_ + 792 x_99_ + 540 x_100_ <= 36303
c13: 1 s_12_ + 663 x_1_ + 904 x_2_ + 353 x_3_ + 878 x_4_ + 283 x_5_ + 546 x_6_ + 805 x_7_ + 661 x_8_ + 892 x_9_ + 986 x_10_ + 531 x_11_ + 750 x_12_ + 481 x_13_ + 270 x_14_ + 582 x_15_ + 578 x_16_ + 478 x_17_ + 471 x_18_ + 182 x_19_ + 914 x_20_ + 24 x_21_ + 818 x_22_ + 55 x_23_ + 749 x_24_ + 600 x_25_ + 245 x_26_ + 585 x_27_ + 989 x_28_ + 440 x_29_ + 656 x_30_ + 732 x_31_ + 709 x_32_ + 287 x_33_ + 703 x_34_ + 129 x_35_ + 308 x_36_ + 780 x_37_ + 785 x_38_ + 873 x_39_ + 94 x_40_ + 843 x_41_ + 42 x_42_ + 14 x_43_ + 974 x_44_ + 570 x_45_ + 984 x_46_ + 491 x_47_ + 885 x_48_ + 11 x_49_ + 536 x_50_ + 85 x_51_ + 449 x_52_ + 664 x_53_ + 503 x_54_ + 174 x_55_ + 479 x_56_ + 504 x_57_ + 871 x_58_ + 270 x_59_ + 183 x_60_ + 835 x_61_ + 647 x_62_ + 200 x_63_ + 41 x_64_ + 295 x_65_ + 154 x_66_ + 829 x_67_ + 771 x_68_ + 672 x_69_ + 443 x_70_ + 483 x_71_ + 311 x_72_ + 641 x_73_ + 125 x_74_ + 67 x_75_ + 702 x_76_ + 677 x_77_ + 100 x_78_ + 645 x_79_ + 304 x_80_ + 644 x_81_ + 282 x_82_ + 84 x_83_ + 255 x_84_ + 574 x_85_ + 555 x_86_ + 537 x_87_ + 686 x_88_ + 241 x_89_ + 64 x_90_ + 440 x_91_ + 508 x_92_ + 843 x_93_ + 69 x_94_ + 581 x_95_ + 288 x_96_ + 255 x_97_ + 9 x_98_ + 804 x_99_ + 964 x_100_ <= 37445
c14: 1 s_13_ + 903 x_1_ + 480 x_2_ + 795 x_3_ + 290 x_4_ + 277 x_5_ + 354 x_6_ + 801 x_7_ + 991 x_8_ + 297 x_9_ + 617 x_10_ + 251 x_11_ + 73 x_12_ + 833 x_13_ + 5 x_14_ + 930 x_15_ + 554 x_16_ + 772 x_17_ + 983 x_18_ + 742 x_19_ + 146 x_20_ + 917 x_21_ + 104 x_22_ + 688 x_23_ + 701 x_24_ + 881 x_25_ + 887 x_26_ + 442 x_27_ + 874 x_28_ + 351 x_29_ + 341 x_30_ + 672 x_31_ + 871 x_32_ + 97 x_33_ + 560 x_34_ + 619 x_35_ + 677 x_36_ + 431 x_37_ + 169 x_38_ + 593 x_39_ + 719 x_40_ + 230 x_41_ + 167 x_42_ + 702 x_43_ + 873 x_44_ + 562 x_45_ + 552 x_46_ + 568 x_47_ + 163 x_48_ + 649 x_49_ + 571 x_50_ + 269 x_51_ + 682 x_52_ + 556 x_53_ + 821 x_54_ + 174 x_55_ + 91 x_56_ + 899 x_57_ + 935 x_58_ + 928 x_59_ + 503 x_60_ + 295 x_61_ + 773 x_62_ + 7 x_63_ + 908 x_64_ + 111 x_65_ + 213 x_66_ + 105 x_67_ + 401 x_68_ + 471 x_69_ + 491 x_70_ + 850 x_71_ + 663 x_72_ + 348 x_73_ + 87 x_74_ + 197 x_75_ + 665 x_76_ + 968 x_77_ + 19 x_78_ + 742 x_79_ + 794 x_80_ + 597 x_81_ + 893 x_82_ + 248 x_83_ + 792 x_84_ + 636 x_85_ + 298 x_86_ + 785 x_87_ + 828 x_88_ + 459 x_89_ + 749 x_90_ + 135 x_91_ + 86 x_92_ + 416 x_93_ + 177 x_94_ + 185 x_95_ + 315 x_96_ + 408 x_97_ + 668 x_98_ + 590 x_99_ + 62 x_100_ <= 39014
c15: 1 s_14_ + 221 x_1_ + 328 x_2_ + 710 x_3_ + 656 x_4_ + 363 x_5_ + 576 x_6_ + 889 x_7_ + 79 x_8_ + 642 x_9_ + 823 x_10_ + 459 x_11_ + 215 x_12_ + 617 x_13_ + 304 x_14_ + 917 x_15_ + 715 x_16_ + 326 x_17_ + 932 x_18_ + 907 x_19_ + 729 x_20_ + 656 x_21_ + 495 x_22_ + 503 x_23_ + 281 x_24_ + 801 x_25_ + 746 x_26_ + 848 x_27_ + 388 x_28_ + 292 x_29_ + 791 x_30_ + 521 x_31_ + 540 x_32_ + 962 x_33_ + 470 x_34_ + 571 x_35_ + 888 x_36_ + 756 x_37_ + 538 x_38_ + 274 x_39_ + 492 x_40_ + 96 x_41_ + 931 x_42_ + 457 x_43_ + 553 x_44_ + 547 x_45_ + 481 x_46_ + 165 x_47_ + 666 x_48_ + 715 x_49_ + 141 x_50_ + 489 x_51_ + 130 x_52_ + 658 x_53_ + 48 x_54_ + 583 x_55_ + 182 x_56_ + 458 x_57_ + 688 x_58_ + 362 x_59_ + 87 x_60_ + 835 x_61_ + 149 x_62_ + 459 x_63_ + 387 x_64_ + 893 x_65_ + 728 x_66_ + 866 x_67_ + 448 x_68_ + 918 x_69_ + 278 x_70_ + 264 x_71_ + 792 x_72_ + 834 x_73_ + 559 x_74_ + 502 x_75_ + 298 x_76_ + 997 x_77_ + 810 x_78_ + 759 x_79_ + 607 x_80_ + 650 x_81_ + 429 x_82_ + 142 x_83_ + 799 x_84_ + 473 x_85_ + 142 x_86_ + 576 x_87_ + 167 x_88_ + 315 x_89_ + 761 x_90_ + 359 x_91_ + 963 x_92_ + 485 x_93_ + 943 x_94_ + 612 x_95_ + 203 x_96_ + 438 x_97_ + 995 x_98_ + 754 x_99_ + 480 x_100_ <= 41045
c16: 1 s_15_ + 472 x_1_ + 36 x_2_ + 114 x_3_ + 771 x_4_ + 280 x_5_ + 13 x_6_ + 90 x_7_ + 297 x_8_ + 950 x_9_ + 75 x_10_ + 349 x_11_ + 704 x_12_ + 363 x_13_ + 11 x_14_ + 344 x_15_ + 792 x_16_ + 182 x_17_ + 985 x_18_ + 98 x_19_ + 282 x_20_ + 524 x_21_ + 280 x_22_ + 737 x_23_ + 626 x_24_ + 227 x_25_ + 309 x_26_ + 836 x_27_ + 724 x_28_ + 173 x_29_ + 650 x_30_ + 660 x_31_ + 720 x_32_ + 653 x_33_ + 915 x_34_ + 729 x_35_ + 500 x_36_ + 778 x_37_ + 842 x_38_ + 286 x_39_ + 990 x_40_ + 158 x_41_ + 763 x_42_ + 997 x_43_ + 102 x_44_ + 542 x_45_ + 959 x_46_ + 1000 x_47_ + 61 x_48_ + 400 x_49_ + 649 x_50_ + 876 x_51_ + 320 x_52_ + 462 x_53_ + 571 x_54_ + 422 x_55_ + 347 x_56_ + 116 x_57_ + 13 x_58_ + 98 x_59_ + 502 x_60_ + 898 x_61_ + 386 x_62_ + 40 x_63_ + 567 x_64_ + 994 x_65_ + 955 x_66_ + 661 x_67_ + 29 x_68_ + 433 x_69_ + 920 x_70_ + 346 x_71_ + 176 x_72_ + 750 x_73_ + 459 x_74_ + 575 x_75_ + 154 x_76_ + 868 x_77_ + 594 x_78_ + 814 x_79_ + 382 x_80_ + 350 x_81_ + 143 x_82_ + 751 x_83_ + 818 x_84_ + 119 x_85_ + 514 x_86_ + 303 x_87_ + 685 x_88_ + 280 x_89_ + 762 x_90_ + 247 x_91_ + 993 x_92_ + 638 x_93_ + 685 x_94_ + 77 x_95_ + 711 x_96_ + 408 x_97_ + 669 x_98_ + 573 x_99_ + 381 x_100_ <= 37375
c17: 1 s_16_ + 732 x_1_ + 134 x_2_ + 558 x_3_ + 713 x_4_ + 852 x_5_ + 217 x_6_ + 908 x_7_ + 258 x_8_ + 171 x_9_ + 787 x_10_ + 985 x_11_ + 891 x_12_ + 795 x_13_ + 875 x_14_ + 211 x_15_ + 286 x_16_ + 17 x_17_ + 773 x_18_ + 299 x_19_ + 866 x_20_ + 687 x_21_ + 193 x_22_ + 547 x_23_ + 932 x_24_ + 799 x_25_ + 579 x_26_ + 220 x_27_ + 199 x_28_ + 40 x_29_ + 128 x_30_ + 778 x_31_ + 252 x_32_ + 387 x_33_ + 157 x_34_ + 241 x_35_ + 887 x_36_ + 738 x_37_ + 728 x_38_ + 932 x_39_ + 951 x_40_ + 205 x_41_ + 731 x_42_ + 442 x_43_ + 83 x_44_ + 868 x_45_ + 188 x_46_ + 623 x_47_ + 445 x_48_ + 827 x_49_ + 797 x_50_ + 827 x_51_ + 400 x_52_ + 609 x_53_ + 44 x_54_ + 605 x_55_ + 265 x_56_ + 15 x_57_ + 115 x_58_ + 181 x_59_ + 975 x_60_ + 177 x_61_ + 645 x_62_ + 468 x_63_ + 153 x_64_ + 30 x_65_ + 749 x_66_ + 676 x_67_ + 508 x_68_ + 447 x_69_ + 614 x_70_ + 695 x_71_ + 49 x_72_ + 249 x_73_ + 865 x_74_ + 449 x_75_ + 48 x_76_ + 706 x_77_ + 826 x_78_ + 4 x_79_ + 991 x_80_ + 910 x_81_ + 354 x_82_ + 103 x_83_ + 465 x_84_ + 391 x_85_ + 59 x_86_ + 678 x_87_ + 374 x_88_ + 141 x_89_ + 125 x_90_ + 168 x_91_ + 38 x_92_ + 643 x_93_ + 931 x_94_ + 178 x_95_ + 502 x_96_ + 285 x_97_ + 380 x_98_ + 943 x_99_ + 814 x_100_ <= 36584
c18: 1 s_17_ + 627 x_1_ + 131 x_2_ + 892 x_3_ + 576 x_4_ + 199 x_5_ + 414 x_6_ + 925 x_7_ + 233 x_8_ + 54 x_9_ + 702 x_10_ + 482 x_11_ + 364 x_12_ + 80 x_13_ + 691 x_14_ + 71 x_15_ + 291 x_16_ + 679 x_17_ + 309 x_18_ + 902 x_19_ + 693 x_20_ + 186 x_21_ + 762 x_22_ + 188 x_23_ + 750 x_24_ + 334 x_25_ + 98 x_26_ + 166 x_27_ + 225 x_28_ + 697 x_29_ + 380 x_30_ + 617 x_31_ + 566 x_32_ + 694 x_33_ + 239 x_34_ + 636 x_35_ + 68 x_36_ + 944 x_37_ + 921 x_38_ + 127 x_39_ + 909 x_40_ + 495 x_41_ + 895 x_42_ + 832 x_43_ + 212 x_44_ + 379 x_45_ + 912 x_46_ + 402 x_47_ + 239 x_48_ + 731 x_49_ + 338 x_50_ + 60 x_51_ + 324 x_52_ + 612 x_53_ + 961 x_54_ + 442 x_55_ + 597 x_56_ + 219 x_57_ + 427 x_58_ + 725 x_59_ + 228 x_60_ + 729 x_61_ + 325 x_62_ + 771 x_63_ + 421 x_64_ + 209 x_65_ + 531 x_66_ + 615 x_67_ + 733 x_68_ + 522 x_69_ + 714 x_70_ + 807 x_71_ + 478 x_72_ + 381 x_73_ + 886 x_74_ + 712 x_75_ + 927 x_76_ + 998 x_77_ + 370 x_78_ + 801 x_79_ + 261 x_80_ + 570 x_81_ + 323 x_82_ + 49 x_83_ + 117 x_84_ + 109 x_85_ + 675 x_86_ + 697 x_87_ + 893 x_88_ + 104 x_89_ + 598 x_90_ + 106 x_91_ + 621 x_92_ + 69 x_93_ + 110 x_94_ + 741 x_95_ + 161 x_96_ + 730 x_97_ + 767 x_98_ + 933 x_99_ + 523 x_100_ <= 37454
c19: 1 s_18_ + 735 x_1_ + 906 x_2_ + 444 x_3_ + 466 x_4_ + 440 x_5_ + 90 x_6_ + 655 x_7_ + 877 x_8_ + 585 x_9_ + 200 x_10_ + 771 x_11_ + 901 x_12_ + 364 x_13_ + 607 x_14_ + 413 x_15_ + 126 x_16_ + 515 x_17_ + 407 x_18_ + 451 x_19_ + 308 x_20_ + 567 x_21_ + 762 x_22_ + 131 x_23_ + 493 x_24_ + 861 x_25_ + 648 x_26_ + 127 x_27_ + 859 x_28_ + 427 x_29_ + 410 x_30_ + 805 x_31_ + 902 x_32_ + 766 x_33_ + 624 x_34_ + 783 x_35_ + 922 x_36_ + 936 x_37_ + 556 x_38_ + 80 x_39_ + 638 x_40_ + 12 x_41_ + 859 x_42_ + 10 x_43_ + 64 x_44_ + 282 x_45_ + 471 x_46_ + 807 x_47_ + 688 x_48_ + 129 x_49_ + 213 x_50_ + 926 x_51_ + 107 x_52_ + 327 x_53_ + 399 x_54_ + 809 x_55_ + 445 x_56_ + 169 x_57_ + 401 x_58_ + 24 x_59_ + 483 x_60_ + 539 x_61_ + 788 x_62_ + 863 x_63_ + 5 x_64_ + 23 x_65_ + 549 x_66_ + 832 x_67_ + 95 x_68_ + 438 x_69_ + 35 x_70_ + 281 x_71_ + 761 x_72_ + 303 x_73_ + 50 x_74_ + 12 x_75_ + 12 x_76_ + 330 x_77_ + 594 x_78_ + 304 x_79_ + 811 x_80_ + 236 x_81_ + 398 x_82_ + 682 x_83_ + 683 x_84_ + 872 x_85_ + 462 x_86_ + 259 x_87_ + 515 x_88_ + 746 x_89_ + 620 x_90_ + 792 x_91_ + 825 x_92_ + 610 x_93_ + 398 x_94_ + 85 x_95_ + 250 x_96_ + 370 x_97_ + 448 x_98_ + 399 x_99_ + 751 x_100_ <= 36157
c20: 1 s_19_ + 889 x_1_ + 143 x_2_ + 435 x_3_ + 312 x_4_ + 475 x_5_ + 334 x_6_ + 769 x_7_ + 601 x_8_ + 358 x_9_ + 288 x_10_ + 88 x_11_ + 248 x_12_ + 741 x_13_ + 354 x_14_ + 473 x_15_ + 18 x_16_ + 763 x_17_ + 70 x_18_ + 947 x_19_ + 720 x_20_ + 334 x_21_ + 567 x_22_ + 57 x_23_ + 573 x_24_ + 25 x_25_ + 671 x_26_ + 861 x_27_ + 723 x_28_ + 824 x_29_ + 802 x_30_ + 715 x_31_ + 555 x_32_ + 1 x_33_ + 969 x_34_ + 134 x_35_ + 793 x_36_ + 695 x_37_ + 982 x_38_ + 3 x_39_ + 49 x_40_ + 285 x_41_ + 106 x_42_ + 223 x_43_ + 725 x_44_ + 309 x_45_ + 488 x_46_ + 313 x_47_ + 153 x_48_ + 166 x_49_ + 975 x_50_ + 55 x_51_ + 588 x_52_ + 831 x_53_ + 362 x_54_ + 705 x_55_ + 703 x_56_ + 934 x_57_ + 976 x_58_ + 928 x_59_ + 794 x_60_ + 391 x_61_ + 178 x_62_ + 349 x_63_ + 763 x_64_ + 94 x_65_ + 232 x_66_ + 313 x_67_ + 222 x_68_ + 587 x_69_ + 354 x_70_ + 1000 x_71_ + 395 x_72_ + 567 x_73_ + 928 x_74_ + 652 x_75_ + 947 x_76_ + 290 x_77_ + 992 x_78_ + 786 x_79_ + 560 x_80_ + 19 x_81_ + 866 x_82_ + 807 x_83_ + 87 x_84_ + 588 x_85_ + 69 x_86_ + 585 x_87_ + 854 x_88_ + 403 x_89_ + 776 x_90_ + 973 x_91_ + 269 x_92_ + 769 x_93_ + 928 x_94_ + 60 x_95_ + 223 x_96_ + 24 x_97_ + 821 x_98_ + 789 x_99_ + 517 x_100_ <= 38254
c21: 1 s_20_ + 999 x_1_ + 827 x_2_ + 8 x_3_ + 575 x_4_ + 269 x_5_ + 105 x_6_ + 968 x_7_ + 362 x_8_ + 190 x_9_ + 611 x_10_ + 134 x_11_ + 999 x_12_ + 865 x_13_ + 63 x_14_ + 380 x_15_ + 929 x_16_ + 645 x_17_ + 145 x_18_ + 881 x_19_ + 724 x_20_ + 727 x_21_ + 8 x_22_ + 726 x_23_ + 702 x_24_ + 805 x_25_ + 653 x_26_ + 178 x_27_ + 143 x_28_ + 488 x_29_ + 255 x_30_ + 561 x_31_ + 184 x_32_ + 699 x_33_ + 560 x_34_ + 541 x_35_ + 581 x_36_ + 989 x_37_ + 389 x_38_ + 642 x_39_ + 625 x_40_ + 737 x_41_ + 872 x_42_ + 699 x_43_ + 358 x_44_ + 320 x_45_ + 357 x_46_ + 294 x_47_ + 802 x_48_ + 267 x_49_ + 990 x_50_ + 736 x_51_ + 136 x_52_ + 810 x_53_ + 239 x_54_ + 632 x_55_ + 619 x_56_ + 339 x_57_ + 809 x_58_ + 756 x_59_ + 91 x_60_ + 20 x_61_ + 295 x_62_ + 207 x_63_ + 93 x_64_ + 912 x_65_ + 802 x_66_ + 909 x_67_ + 532 x_68_ + 169 x_69_ + 701 x_70_ + 259 x_71_ + 602 x_72_ + 881 x_73_ + 87 x_74_ + 786 x_75_ + 117 x_76_ + 536 x_77_ + 404 x_78_ + 949 x_79_ + 601 x_80_ + 637 x_81_ + 859 x_82_ + 23 x_83_ + 505 x_84_ + 397 x_85_ + 741 x_86_ + 718 x_87_ + 757 x_88_ + 900 x_89_ + 99 x_90_ + 349 x_91_ + 227 x_92_ + 926 x_93_ + 796 x_94_ + 717 x_95_ + 933 x_96_ + 780 x_97_ + 48 x_98_ + 617 x_99_ + 678 x_100_ <= 40175
c22: 1 s_21_ + 88 x_1_ + 592 x_2_ + 819 x_3_ + 668 x_4_ + 959 x_5_ + 353 x_6_ + 194 x_7_ + 116 x_8_ + 274 x_9_ + 29 x_10_ + 928 x_11_ + 736 x_12_ + 394 x_13_ + 256 x_14_ + 949 x_15_ + 841 x_16_ + 998 x_17_ + 651 x_18_ + 654 x_19_ + 829 x_20_ + 703 x_21_ + 11 x_22_ + 539 x_23_ + 70 x_24_ + 117 x_25_ + 550 x_26_ + 427 x_27_ + 833 x_28_ + 673 x_29_ + 811 x_30_ + 968 x_31_ + 785 x_32_ + 794 x_33_ + 86 x_34_ + 434 x_35_ + 175 x_36_ + 68 x_37_ + 86 x_38_ + 292 x_39_ + 786 x_40_ + 596 x_41_ + 759 x_42_ + 392 x_43_ + 822 x_44_ + 868 x_45_ + 6 x_46_ + 916 x_47_ + 510 x_48_ + 271 x_49_ + 40 x_50_ + 993 x_51_ + 825 x_52_ + 883 x_53_ + 586 x_54_ + 407 x_55_ + 198 x_56_ + 578 x_57_ + 518 x_58_ + 627 x_59_ + 359 x_60_ + 646 x_61_ + 690 x_62_ + 763 x_63_ + 823 x_64_ + 711 x_65_ + 304 x_66_ + 863 x_67_ + 682 x_68_ + 919 x_69_ + 949 x_70_ + 872 x_71_ + 921 x_72_ + 640 x_73_ + 755 x_74_ + 149 x_75_ + 682 x_76_ + 75 x_77_ + 716 x_78_ + 354 x_79_ + 10 x_80_ + 103 x_81_ + 149 x_82_ + 935 x_83_ + 642 x_84_ + 338 x_85_ + 415 x_86_ + 529 x_87_ + 618 x_88_ + 595 x_89_ + 596 x_90_ + 411 x_91_ + 360 x_92_ + 444 x_93_ + 301 x_94_ + 66 x_95_ + 278 x_96_ + 32 x_97_ + 838 x_98_ + 443 x_99_ + 727 x_100_ <= 39776
c23: 1 s_22_ + 520 x_1_ + 694 x_2_ + 293 x_3_ + 672 x_4_ + 845 x_5_ + 576 x_6_ + 655 x_7_ + 886 x_8_ + 485 x_9_ + 11 x_10_ + 727 x_11_ + 891 x_12_ + 294 x_13_ + 385 x_14_ + 791 x_15_ + 456 x_16_ + 347 x_17_ + 106 x_18_ + 512 x_19_ + 625 x_20_ + 298 x_21_ + 774 x_22_ + 60 x_23_ + 892 x_24_ + 497 x_25_ + 45 x_26_ + 205 x_27_ + 535 x_28_ + 556 x_29_ + 911 x_30_ + 998 x_31_ + 820 x_32_ + 727 x_33_ + 786 x_34_ + 181 x_35_ + 782 x_36_ + 491 x_37_ + 486 x_38_ + 477 x_39_ + 744 x_40_ + 795 x_41_ + 66 x_42_ + 693 x_43_ + 66 x_44_ + 876 x_45_ + 325 x_46_ + 290 x_47_ + 651 x_48_ + 647 x_49_ + 820 x_50_ + 229 x_51_ + 645 x_52_ + 349 x_53_ + 55 x_54_ + 733 x_55_ + 755 x_56_ + 231 x_57_ + 642 x_58_ + 235 x_59_ + 339 x_60_ + 155 x_61_ + 915 x_62_ + 391 x_63_ + 987 x_64_ + 925 x_65_ + 80 x_66_ + 350 x_67_ + 821 x_68_ + 931 x_69_ + 614 x_70_ + 832 x_71_ + 778 x_72_ + 86 x_73_ + 610 x_74_ + 474 x_75_ + 344 x_76_ + 26 x_77_ + 176 x_78_ + 504 x_79_ + 51 x_80_ + 964 x_81_ + 733 x_82_ + 512 x_83_ + 692 x_84_ + 22 x_85_ + 996 x_86_ + 167 x_87_ + 421 x_88_ + 453 x_89_ + 290 x_90_ + 245 x_91_ + 488 x_92_ + 5 x_93_ + 179 x_94_ + 903 x_95_ + 154 x_96_ + 112 x_97_ + 609 x_98_ + 952 x_99_ + 19 x_100_ <= 37833
c24: 1 s_23_ + 587 x_1_ + 560 x_2_ + 815 x_3_ + 946 x_4_ + 429 x_5_ + 386 x_6_ + 791 x_7_ + 587 x_8_ + 918 x_9_ + 83 x_10_ + 152 x_11_ + 528 x_12_ + 644 x_13_ + 108 x_14_ + 993 x_15_ + 144 x_16_ + 893 x_17_ + 168 x_18_ + 50 x_19_ + 409 x_20_ + 963 x_21_ + 48 x_22_ + 586 x_23_ + 911 x_24_ + 354 x_25_ + 430 x_26_ + 694 x_27_ + 66 x_28_ + 50 x_29_ + 796 x_30_ + 100 x_31_ + 129 x_32_ + 189 x_33_ + 555 x_34_ + 403 x_35_ + 25 x_36_ + 816 x_37_ + 690 x_38_ + 859 x_39_ + 252 x_40_ + 642 x_41_ + 357 x_42_ + 836 x_43_ + 393 x_44_ + 790 x_45_ + 689 x_46_ + 567 x_47_ + 967 x_48_ + 840 x_49_ + 1000 x_50_ + 182 x_51_ + 913 x_52_ + 713 x_53_ + 217 x_54_ + 108 x_55_ + 896 x_56_ + 754 x_57_ + 29 x_58_ + 572 x_59_ + 604 x_60_ + 650 x_61_ + 545 x_62_ + 170 x_63_ + 104 x_64_ + 536 x_65_ + 231 x_66_ + 452 x_67_ + 928 x_68_ + 464 x_69_ + 603 x_70_ + 159 x_71_ + 459 x_72_ + 517 x_73_ + 478 x_74_ + 569 x_75_ + 400 x_76_ + 194 x_77_ + 309 x_78_ + 858 x_79_ + 722 x_80_ + 353 x_81_ + 94 x_82_ + 706 x_83_ + 636 x_84_ + 647 x_85_ + 423 x_86_ + 153 x_87_ + 91 x_88_ + 366 x_89_ + 807 x_90_ + 456 x_91_ + 462 x_92_ + 817 x_93_ + 313 x_94_ + 802 x_95_ + 646 x_96_ + 268 x_97_ + 925 x_98_ + 234 x_99_ + 613 x_100_ <= 37752
c25: 1 s_24_ + 739 x_1_ + 525 x_2_ + 667 x_3_ + 616 x_4_ + 471 x_5_ + 327 x_6_ + 178 x_7_ + 348 x_8_ + 568 x_9_ + 583 x_10_ + 988 x_11_ + 634 x_12_ + 454 x_13_ + 986 x_14_ + 719 x_15_ + 722 x_16_ + 862 x_17_ + 770 x_18_ + 97 x_19_ + 200 x_20_ + 653 x_21_ + 461 x_22_ + 914 x_23_ + 241 x_24_ + 605 x_25_ + 340 x_26_ + 667 x_27_ + 124 x_28_ + 330 x_29_ + 604 x_30_ + 828 x_31_ + 945 x_32_ + 771 x_33_ + 334 x_34_ + 623 x_35_ + 259 x_36_ + 505 x_37_ + 951 x_38_ + 205 x_39_ + 476 x_40_ + 313 x_41_ + 607 x_42_ + 643 x_43_ + 677 x_44_ + 9 x_45_ + 74 x_46_ + 892 x_47_ + 826 x_48_ + 677 x_49_ + 449 x_50_ + 582 x_51_ + 823 x_52_ + 383 x_53_ + 158 x_54_ + 396 x_55_ + 53 x_56_ + 528 x_57_ + 649 x_58_ + 398 x_59_ + 498 x_60_ + 968 x_61_ + 636 x_62_ + 267 x_63_ + 836 x_64_ + 303 x_65_ + 1 x_66_ + 298 x_67_ + 516 x_68_ + 689 x_69_ + 567 x_70_ + 3 x_71_ + 234 x_72_ + 820 x_73_ + 103 x_74_ + 472 x_75_ + 492 x_76_ + 953 x_77_ + 1 x_78_ + 314 x_79_ + 814 x_80_ + 100 x_81_ + 204 x_82_ + 438 x_83_ + 152 x_84_ + 164 x_85_ + 394 x_86_ + 460 x_87_ + 986 x_88_ + 552 x_89_ + 352 x_90_ + 659 x_91_ + 320 x_92_ + 40 x_93_ + 862 x_94_ + 694 x_95_ + 638 x_96_ + 839 x_97_ + 507 x_98_ + 693 x_99_ + 642 x_100_ <= 38181
c26: 1 s_25_ + 169 x_1_ + 790 x_2_ + 875 x_3_ + 580 x_4_ + 633 x_5_ + 500 x_6_ + 387 x_7_ + 847 x_8_ + 759 x_9_ + 500 x_10_ + 417 x_11_ + 292 x_12_ + 595 x_13_ + 260 x_14_ + 601 x_15_ + 202 x_16_ + 676 x_17_ + 674 x_18_ + 83 x_19_ + 336 x_20_ + 335 x_21_ + 274 x_22_ + 377 x_23_ + 502 x_24_ + 473 x_25_ + 986 x_26_ + 367 x_27_ + 911 x_28_ + 803 x_29_ + 622 x_30_ + 71 x_31_ + 951 x_32_ + 624 x_33_ + 173 x_34_ + 934 x_35_ + 684 x_36_ + 520 x_37_ + 856 x_38_ + 563 x_39_ + 30 x_40_ + 505 x_41_ + 14 x_42_ + 817 x_43_ + 77 x_44_ + 546 x_45_ + 697 x_46_ + 433 x_47_ + 119 x_48_ + 904 x_49_ + 829 x_50_ + 585 x_51_ + 143 x_52_ + 988 x_53_ + 94 x_54_ + 978 x_55_ + 780 x_56_ + 195 x_57_ + 647 x_58_ + 956 x_59_ + 495 x_60_ + 307 x_61_ + 434 x_62_ + 961 x_63_ + 418 x_64_ + 110 x_65_ + 435 x_66_ + 244 x_67_ + 688 x_68_ + 169 x_69_ + 170 x_70_ + 441 x_71_ + 993 x_72_ + 345 x_73_ + 380 x_74_ + 473 x_75_ + 194 x_76_ + 26 x_77_ + 841 x_78_ + 860 x_79_ + 174 x_80_ + 903 x_81_ + 932 x_82_ + 469 x_83_ + 655 x_84_ + 544 x_85_ + 740 x_86_ + 915 x_87_ + 786 x_88_ + 46 x_89_ + 885 x_90_ + 13 x_91_ + 902 x_92_ + 152 x_93_ + 46 x_94_ + 387 x_95_ + 538 x_96_ + 452 x_97_ + 928 x_98_ + 213 x_99_ + 713 x_100_ <= 38937
c27: 1 s_26_ + 492 x_1_ + 299 x_2_ + 956 x_3_ + 511 x_4_ + 734 x_5_ + 840 x_6_ + 994 x_7_ + 945 x_8_ + 865 x_9_ + 574 x_10_ + 539 x_11_ + 158 x_12_ + 569 x_13_ + 686 x_14_ + 584 x_15_ + 399 x_16_ + 489 x_17_ + 693 x_18_ + 607 x_19_ + 976 x_20_ + 635 x_21_ + 909 x_22_ + 436 x_23_ + 923 x_24_ + 129 x_25_ + 114 x_26_ + 405 x_27_ + 9 x_28_ + 848 x_29_ + 173 x_30_ + 128 x_31_ + 624 x_32_ + 554 x_33_ + 882 x_34_ + 310 x_35_ + 490 x_36_ + 432 x_37_ + 570 x_38_ + 636 x_39_ + 75 x_40_ + 513 x_41_ + 792 x_42_ + 389 x_43_ + 65 x_44_ + 334 x_45_ + 428 x_46_ + 657 x_47_ + 41 x_48_ + 537 x_49_ + 217 x_50_ + 36 x_51_ + 166 x_52_ + 408 x_53_ + 94 x_54_ + 535 x_55_ + 24 x_56_ + 182 x_57_ + 543 x_58_ + 798 x_59_ + 277 x_60_ + 500 x_61_ + 161 x_62_ + 694 x_63_ + 491 x_64_ + 410 x_65_ + 808 x_66_ + 965 x_67_ + 657 x_68_ + 807 x_69_ + 913 x_70_ + 998 x_71_ + 304 x_72_ + 177 x_73_ + 478 x_74_ + 827 x_75_ + 405 x_76_ + 6 x_77_ + 965 x_78_ + 66 x_79_ + 60 x_80_ + 551 x_81_ + 127 x_82_ + 379 x_83_ + 763 x_84_ + 351 x_85_ + 753 x_86_ + 270 x_87_ + 180 x_88_ + 711 x_89_ + 324 x_90_ + 383 x_91_ + 456 x_92_ + 983 x_93_ + 213 x_94_ + 959 x_95_ + 363 x_96_ + 36 x_97_ + 284 x_98_ + 113 x_99_ + 100 x_100_ <= 36164
c28: 1 s_27_ + 532 x_1_ + 613 x_2_ + 329 x_3_ + 96 x_4_ + 450 x_5_ + 97 x_6_ + 301 x_7_ + 588 x_8_ + 393 x_9_ + 969 x_10_ + 833 x_11_ + 607 x_12_ + 387 x_13_ + 23 x_14_ + 379 x_15_ + 537 x_16_ + 823 x_17_ + 829 x_18_ + 179 x_19_ + 574 x_20_ + 804 x_21_ + 466 x_22_ + 472 x_23_ + 248 x_24_ + 945 x_25_ + 120 x_26_ + 618 x_27_ + 32 x_28_ + 864 x_29_ + 303 x_30_ + 748 x_31_ + 266 x_32_ + 581 x_33_ + 815 x_34_ + 293 x_35_ + 891 x_36_ + 682 x_37_ + 200 x_38_ + 755 x_39_ + 612 x_40_ + 680 x_41_ + 817 x_42_ + 326 x_43_ + 812 x_44_ + 285 x_45_ + 58 x_46_ + 509 x_47_ + 846 x_48_ + 953 x_49_ + 666 x_50_ + 748 x_51_ + 136 x_52_ + 774 x_53_ + 296 x_54_ + 872 x_55_ + 950 x_56_ + 802 x_57_ + 75 x_58_ + 248 x_59_ + 730 x_60_ + 14 x_61_ + 408 x_62_ + 356 x_63_ + 197 x_64_ + 772 x_65_ + 598 x_66_ + 898 x_67_ + 569 x_68_ + 611 x_69_ + 123 x_70_ + 628 x_71_ + 70 x_72_ + 354 x_73_ + 516 x_74_ + 99 x_75_ + 313 x_76_ + 478 x_77_ + 863 x_78_ + 737 x_79_ + 412 x_80_ + 475 x_81_ + 81 x_82_ + 274 x_83_ + 768 x_84_ + 84 x_85_ + 623 x_86_ + 192 x_87_ + 451 x_88_ + 579 x_89_ + 437 x_90_ + 841 x_91_ + 737 x_92_ + 295 x_93_ + 159 x_94_ + 385 x_95_ + 291 x_96_ + 992 x_97_ + 211 x_98_ + 799 x_99_ + 522 x_100_ <= 37537
c29: 1 s_28_ + 964 x_1_ + 683 x_2_ + 393 x_3_ + 682 x_4_ + 207 x_5_ + 11 x_6_ + 510 x_7_ + 960 x_8_ + 652 x_9_ + 695 x_10_ + 831 x_11_ + 81 x_12_ + 431 x_13_ + 986 x_14_ + 772 x_15_ + 815 x_16_ + 190 x_17_ + 342 x_18_ + 1000 x_19_ + 533 x_20_ + 138 x_21_ + 198 x_22_ + 964 x_23_ + 469 x_24_ + 969 x_25_ + 669 x_26_ + 621 x_27_ + 542 x_28_ + 433 x_29_ + 69 x_30_ + 765 x_31_ + 886 x_32_ + 389 x_33_ + 319 x_34_ + 249 x_35_ + 225 x_36_ + 871 x_37_ + 413 x_38_ + 640 x_39_ + 575 x_40_ + 881 x_41_ + 289 x_42_ + 518 x_43_ + 991 x_44_ + 163 x_45_ + 764 x_46_ + 67 x_47_ + 902 x_48_ + 700 x_49_ + 365 x_50_ + 896 x_51_ + 269 x_52_ + 881 x_53_ + 591 x_54_ + 370 x_55_ + 621 x_56_ + 758 x_57_ + 833 x_58_ + 574 x_59_ + 300 x_60_ + 360 x_61_ + 221 x_62_ + 979 x_63_ + 469 x_64_ + 990 x_65_ + 720 x_66_ + 198 x_67_ + 369 x_68_ + 283 x_69_ + 467 x_70_ + 376 x_71_ + 191 x_72_ + 996 x_73_ + 934 x_74_ + 559 x_75_ + 172 x_76_ + 625 x_77_ + 199 x_78_ + 631 x_79_ + 859 x_80_ + 446 x_81_ + 157 x_82_ + 975 x_83_ + 627 x_84_ + 279 x_85_ + 408 x_86_ + 387 x_87_ + 635 x_88_ + 70 x_89_ + 100 x_90_ + 717 x_91_ + 510 x_92_ + 643 x_93_ + 882 x_94_ + 738 x_95_ + 591 x_96_ + 559 x_97_ + 589 x_98_ + 430 x_99_ + 379 x_100_ <= 40946
c30: 1 s_29_ + 217 x_1_ + 852 x_2_ + 559 x_3_ + 352 x_4_ + 749 x_5_ + 469 x_6_ + 978 x_7_ + 17 x_8_ + 305 x_9_ + 708 x_10_ + 120 x_11_ + 959 x_12_ + 949 x_13_ + 733 x_14_ + 366 x_15_ + 399 x_16_ + 644 x_17_ + 680 x_18_ + 295 x_19_ + 622 x_20_ + 231 x_21_ + 933 x_22_ + 89 x_23_ + 708 x_24_ + 924 x_25_ + 740 x_26_ + 986 x_27_ + 547 x_28_ + 345 x_29_ + 718 x_30_ + 473 x_31_ + 343 x_32_ + 523 x_33_ + 417 x_34_ + 837 x_35_ + 810 x_36_ + 813 x_37_ + 518 x_38_ + 294 x_39_ + 742 x_40_ + 529 x_41_ + 642 x_42_ + 997 x_43_ + 754 x_44_ + 183 x_45_ + 590 x_46_ + 156 x_47_ + 273 x_48_ + 593 x_49_ + 607 x_50_ + 949 x_51_ + 205 x_52_ + 794 x_53_ + 581 x_54_ + 459 x_55_ + 327 x_56_ + 682 x_57_ + 812 x_58_ + 779 x_59_ + 611 x_60_ + 283 x_61_ + 148 x_62_ + 49 x_63_ + 476 x_64_ + 584 x_65_ + 177 x_66_ + 41 x_67_ + 525 x_68_ + 850 x_69_ + 722 x_70_ + 292 x_71_ + 924 x_72_ + 698 x_73_ + 521 x_74_ + 679 x_75_ + 4 x_76_ + 278 x_77_ + 847 x_78_ + 2 x_79_ + 993 x_80_ + 44 x_81_ + 486 x_82_ + 622 x_83_ + 986 x_84_ + 1000 x_85_ + 147 x_86_ + 627 x_87_ + 853 x_88_ + 469 x_89_ + 353 x_90_ + 820 x_91_ + 261 x_92_ + 997 x_93_ + 471 x_94_ + 676 x_95_ + 588 x_96_ + 624 x_97_ + 548 x_98_ + 885 x_99_ + 737 x_100_ <= 41831
c31: 1 s_30_ + 446 x_1_ + 808 x_2_ + 252 x_3_ + 497 x_4_ + 749 x_5_ + 802 x_6_ + 157 x_7_ + 677 x_8_ + 353 x_9_ + 337 x_10_ + 288 x_11_ + 662 x_12_ + 295 x_13_ + 852 x_14_ + 465 x_15_ + 771 x_16_ + 776 x_17_ + 680 x_18_ + 121 x_19_ + 903 x_20_ + 678 x_21_ + 484 x_22_ + 694 x_23_ + 723 x_24_ + 567 x_25_ + 598 x_26_ + 370 x_27_ + 614 x_28_ + 708 x_29_ + 115 x_30_ + 958 x_31_ + 590 x_32_ + 640 x_33_ + 753 x_34_ + 717 x_35_ + 990 x_36_ + 761 x_37_ + 37 x_38_ + 841 x_39_ + 717 x_40_ + 217 x_41_ + 979 x_42_ + 894 x_43_ + 514 x_44_ + 177 x_45_ + 337 x_46_ + 975 x_47_ + 114 x_48_ + 274 x_49_ + 83 x_50_ + 500 x_51_ + 917 x_52_ + 235 x_53_ + 260 x_54_ + 865 x_55_ + 195 x_56_ + 529 x_57_ + 921 x_58_ + 413 x_59_ + 778 x_60_ + 202 x_61_ + 629 x_62_ + 199 x_63_ + 44 x_64_ + 392 x_65_ + 84 x_66_ + 264 x_67_ + 291 x_68_ + 46 x_69_ + 17 x_70_ + 17 x_71_ + 580 x_72_ + 364 x_73_ + 710 x_74_ + 963 x_75_ + 836 x_76_ + 58 x_77_ + 814 x_78_ + 832 x_79_ + 541 x_80_ + 566 x_81_ + 508 x_82_ + 821 x_83_ + 230 x_84_ + 910 x_85_ + 906 x_86_ + 444 x_87_ + 854 x_88_ + 572 x_89_ + 921 x_90_ + 43 x_91_ + 735 x_92_ + 780 x_93_ + 475 x_94_ + 726 x_95_ + 427 x_96_ + 119 x_97_ + 114 x_98_ + 429 x_99_ + 111 x_100_ <= 39148
c1: 1 ss_1_ + 556 x_1_ + 111 x_2_ + 163 x_3_ + 457 x_4_ + 614 x_5_ + 182 x_6_ + 896 x_7_ + 226 x_8_ + 575 x_9_ + 580 x_10_ + 739 x_11_ + 666 x_12_ + 841 x_13_ + 714 x_14_ + 141 x_15_ + 765 x_16_ + 208 x_17_ + 184 x_18_ + 332 x_19_ + 55 x_20_ + 171 x_21_ + 378 x_22_ + 275 x_23_ + 731 x_24_ + 15 x_25_ + 807 x_26_ + 974 x_27_ + 938 x_28_ + 59 x_29_ + 627 x_30_ + 629 x_31_ + 788 x_32_ + 573 x_33_ + 38 x_34_ + 533 x_35_ + 205 x_36_ + 523 x_37_ + 887 x_38_ + 103 x_39_ + 985 x_40_ + 511 x_41_ + 688 x_42_ + 731 x_43_ + 939 x_44_ + 713 x_45_ + 43 x_46_ + 303 x_47_ + 577 x_48_ + 768 x_49_ + 199 x_50_ + 644 x_51_ + 631 x_52_ + 987 x_53_ + 415 x_54_ + 860 x_55_ + 915 x_56_ + 719 x_57_ + 663 x_58_ + 471 x_59_ + 911 x_60_ + 373 x_61_ + 412 x_62_ + 273 x_63_ + 643 x_64_ + 755 x_65_ + 146 x_66_ + 90 x_67_ + 67 x_68_ + 405 x_69_ + 591 x_70_ + 505 x_71_ + 532 x_72_ + 539 x_73_ + 394 x_74_ + 462 x_75_ + 641 x_76_ + 554 x_77_ + 585 x_78_ + 956 x_79_ + 585 x_80_ + 130 x_81_ + 660 x_82_ + 237 x_83_ + 62 x_84_ + 699 x_85_ + 360 x_86_ + 716 x_87_ + 113 x_88_ + 636 x_89_ + 838 x_90_ + 34 x_91_ + 907 x_92_ + 361 x_93_ + 629 x_94_ + 405 x_95_ + 174 x_96_ + 187 x_97_ + 483 x_98_ + 868 x_99_ + 934 x_100_ >= 38155
Bounds
s_1_ <= 0
s_2_ <= 0
s_3_ <= 0
s_4_ <= 0
s_5_ <= 0
s_6_ <= 0
s_7_ <= 0
s_8_ <= 0
s_9_ <= 0
s_10_ <= 0
s_11_ <= 0
s_12_ <= 0
s_13_ <= 0
s_14_ <= 0
s_15_ <= 0
s_16_ <= 0
s_17_ <= 0
s_18_ <= 0
s_19_ <= 0
s_20_ <= 0
s_21_ <= 0
s_22_ <= 0
s_23_ <= 0
s_24_ <= 0
s_25_ <= 0
s_26_ <= 0
s_27_ <= 0
s_28_ <= 0
s_29_ <= 0
s_30_ <= 0
ss_1_ >= 0
Binary
x_1_
x_2_
x_3_
x_4_
x_5_
x_6_
x_7_
x_8_
x_9_
x_10_
x_11_
x_12_
x_13_
x_14_
x_15_
x_16_
x_17_
x_18_
x_19_
x_20_
x_21_
x_22_
x_23_
x_24_
x_25_
x_26_
x_27_
x_28_
x_29_
x_30_
x_31_
x_32_
x_33_
x_34_
x_35_
x_36_
x_37_
x_38_
x_39_
x_40_
x_41_
x_42_
x_43_
x_44_
x_45_
x_46_
x_47_
x_48_
x_49_
x_50_
x_51_
x_52_
x_53_
x_54_
x_55_
x_56_
x_57_
x_58_
x_59_
x_60_
x_61_
x_62_
x_63_
x_64_
x_65_
x_66_
x_67_
x_68_
x_69_
x_70_
x_71_
x_72_
x_73_
x_74_
x_75_
x_76_
x_77_
x_78_
x_79_
x_80_
x_81_
x_82_
x_83_
x_84_
x_85_
x_86_
x_87_
x_88_
x_89_
x_90_
x_91_
x_92_
x_93_
x_94_
x_95_
x_96_
x_97_
x_98_
x_99_
x_100_
End
